Constructor : 
	simulation seed: 10
	output path: ./out/Small
	input data folder ./in/MILPexp
	output data folder ./out/Small/S5D2U3/10
	loading data from ./in/MILPexp
	initializing MILP Solver
Set parameter Username
Set parameter TimeLimit to value 86400
Set parameter MemLimit to value 64
Set parameter Method to value 0
Academic license - for non-commercial use only - expires 2023-04-21
	 Setting up MILP
6, 6
	 Saving MILP in ./out/Small/S5D2U3/10/MILP-primal/model.lp
Warning: linear constraint 33332 and linear constraint 37007 have the same name "socInit_1"
Gurobi Optimizer version 9.5.1 build v9.5.1rc2 (linux64)
Thread count: 24 physical cores, 48 logical processors, using up to 24 threads
Optimize a model with 38126 rows, 565 columns and 165825 nonzeros
Model fingerprint: 0x56614c7a
Variable types: 43 continuous, 522 integer (522 binary)
Coefficient statistics:
  Matrix range     [1e+00, 2e+05]
  Objective range  [1e+00, 1e+00]
  Bounds range     [1e+00, 1e+00]
  RHS range        [1e+00, 6e+05]
Presolve removed 11981 rows and 154 columns
Presolve time: 0.68s
Presolved: 26145 rows, 411 columns, 113469 nonzeros
Variable types: 34 continuous, 377 integer (377 binary)

Root relaxation: objective 1.333333e+01, 2665 iterations, 0.21 seconds (0.16 work units)

    Nodes    |    Current Node    |     Objective Bounds      |     Work
 Expl Unexpl |  Obj  Depth IntInf | Incumbent    BestBd   Gap | It/Node Time

     0     0   13.33333    0   44          -   13.33333      -     -    1s
     0     0   13.33333    0   41          -   13.33333      -     -    1s
     0     0   13.33333    0   44          -   13.33333      -     -    1s
     0     0   14.36848    0   89          -   14.36848      -     -    2s
     0     0   14.36848    0   93          -   14.36848      -     -    2s
     0     0   16.51237    0  103          -   16.51237      -     -    2s
     0     0   16.51237    0  109          -   16.51237      -     -    2s
     0     0   18.32829    0  127          -   18.32829      -     -    3s
     0     0   18.32829    0  126          -   18.32829      -     -    3s
     0     0   18.66514    0  115          -   18.66514      -     -    3s
     0     0   18.66514    0  113          -   18.66514      -     -    3s
     0     0   18.66667    0  106          -   18.66667      -     -    4s
     0     0   18.66667    0  112          -   18.66667      -     -    4s
     0     0   18.66667    0  108          -   18.66667      -     -    4s
     0     0   18.66667    0  110          -   18.66667      -     -    4s
     0     0   18.66667    0   88          -   18.66667      -     -    5s
     0     0   18.66667    0   83          -   18.66667      -     -    5s
     0     0   18.66667    0   84          -   18.66667      -     -    6s
     0     0   18.66667    0   86          -   18.66667      -     -    6s
     0     0   21.53846    0   82          -   21.53846      -     -    7s
     0     0   21.53846    0   82          -   21.53846      -     -    7s
     0     2   21.53846    0   82          -   21.53846      -     -   10s
   390   399   40.00000   17   36          -   29.00175      -  51.6   15s
  1139   870   80.00000   34   45          -   29.00175      -  55.3   20s
* 1474  1017              31    2523.0096874   37.95779  98.5%  55.2   22s
H 1554  1061                    1511.4285714   37.95779  97.5%  55.4   23s
  1909  1220   40.00000   11   71 1511.42857   40.00000  97.4%  52.7   26s
  2333  1316   40.00000   23   40 1511.42857   40.00000  97.4%  52.6   30s
  3476  1821 1470.00000   23   48 1511.42857   40.00000  97.4%  46.7   35s
  6950  2585 1051.58112   34   33 1511.42857   40.00000  97.4%  36.0   41s
  7787  2586   40.00000   30   82 1511.42857   40.00000  97.4%  35.8   47s
  7791  2589 1051.58112   18  100 1511.42857   40.00000  97.4%  35.7   50s
  7803  2600   40.00000   11   97 1511.42857   40.00000  97.4%  36.2   58s
  7805  2603   40.00000   12  111 1511.42857   40.00000  97.4%  36.2   61s
  7830  2635  119.28571   15   65 1511.42857   40.00000  97.4%  36.4   65s
  7962  2701  715.71429   18   69 1511.42857   40.00000  97.4%  37.0   77s
  8066  2740  715.71429   20   59 1511.42857   40.00000  97.4%  37.3   80s
  8312  2770 1431.42857   29   23 1511.42857   40.00000  97.4%  39.5   85s
  8580  2746 1470.00000   36    2 1511.42857   40.00000  97.4%  40.9   90s
  8889  2771  715.71429   29   48 1511.42857   40.00000  97.4%  43.1   96s
  9068  2752 1437.41574   37   53 1511.42857   40.00000  97.4%  44.1  100s
  9322  2731   40.00000   31   60 1511.42857   40.00000  97.4%  46.1  105s
  9471  2731 infeasible   34      1511.42857   40.00000  97.4%  47.2  111s
  9660  2720     cutoff   34      1511.42857   40.00000  97.4%  48.8  115s
  9952  2684 infeasible   24      1511.42857   40.00000  97.4%  51.9  121s
 10150  2639 infeasible   23      1511.42857   40.00000  97.4%  53.6  126s
 10394  2600 1031.58112   27   69 1511.42857   40.00000  97.4%  55.3  131s
 10674  2600 1307.93813   36   51 1511.42857   40.00000  97.4%  56.9  137s
 11022  2559 1453.41055   38   67 1511.42857   40.00000  97.4%  59.2  143s
 11176  2551 1430.00000   21   32 1511.42857   40.00000  97.4%  60.0  146s
 11296  2562 infeasible   23      1511.42857   40.00000  97.4%  60.5  150s
 11678  2535 1011.58112   34   53 1511.42857   40.00000  97.4%  62.1  157s
 11908  2495 infeasible   44      1511.42857   40.00000  97.4%  62.8  160s
 12349  2397 1011.58112   29   54 1511.42857   40.00000  97.4%  64.0  169s
 12409  2423 1011.58112   30   58 1511.42857   40.00000  97.4%  64.2  171s
 12823  2337 1011.58112   32   43 1511.42857   40.00000  97.4%  66.4  176s
 13309  2223 1431.42857   32   40 1511.42857   40.00000  97.4%  68.3  184s
 13364  2221 1431.42857   33   55 1511.42857   40.00000  97.4%  68.7  186s
 13888  2118 1431.42857   31   45 1511.42857   40.00000  97.4%  71.3  190s
 14619  1974 1510.00000   40   41 1511.42857   40.00000  97.4%  72.9  196s
 14719  1973 infeasible   40      1511.42857   40.00000  97.4%  73.2  200s
 15477  1911 infeasible   30      1511.42857   40.00000  97.4%  74.9  207s
 15943  1921 1431.42857   37   39 1511.42857   40.00000  97.4%  75.5  210s
 16359  1996 1011.58112   26   41 1511.42857   40.00000  97.4%  76.2  215s
 17100  2053 1013.45612   33   51 1511.42857   40.00000  97.4%  77.2  223s
 17536  2090 1014.58112   38   54 1511.42857   40.00000  97.4%  78.1  228s
 17933  2110 1430.00000   21   49 1511.42857   42.72727  97.2%  79.3  232s
 18373  2150 infeasible   25      1511.42857  245.48255  83.8%  80.2  238s
 18968  2191 1491.42857   35   30 1511.42857  715.71429  52.6%  80.6  247s
 20141  2190 infeasible   30      1511.42857  715.71429  52.6%  81.4  256s
 20992  2245 infeasible   38      1511.42857  715.71429  52.6%  82.6  263s
 21727  2306 infeasible   29      1511.42857  715.71429  52.6%  83.6  271s
 22334  2433 1431.42857   25   54 1511.42857  715.71429  52.6%  84.5  279s
 23144  2503 infeasible   27      1511.42857  715.71429  52.6%  85.2  288s
 23863  2472 infeasible   28      1511.42857  715.71429  52.6%  86.1  296s
 24431  2453 1431.42857   31   61 1511.42857  715.71429  52.6%  87.4  304s
 25182  2423 1431.42857   29   28 1511.42857  715.71429  52.6%  88.1  314s
 25989  2377 infeasible   25      1511.42857  740.71429  51.0%  88.2  323s
 26800  2305 infeasible   28      1511.42857  863.64770  42.9%  89.0  333s
 27740  2230 1017.29540   36   57 1511.42857 1011.58112  33.1%  89.6  347s
 28746  2145 infeasible   35      1511.42857 1011.58112  33.1%  90.9  359s
 29603  2063 infeasible   32      1511.42857 1011.58112  33.1%  92.4  372s
 30314  1928 infeasible   22      1511.42857 1011.58112  33.1%  93.4  383s
 31258  1813 infeasible   44      1511.42857 1011.58112  33.1%  94.3  395s
 32343  1672 infeasible   34      1511.42857 1011.58112  33.1%  94.8  407s
 33638  1467 infeasible   23      1511.42857 1051.58112  30.4%  94.8  420s
 35149  1245 1470.00000   34   31 1511.42857 1430.00000  5.39%  94.5  432s
 36695   931 infeasible   35      1511.42857 1431.42857  5.29%  94.1  452s
 38864   733 infeasible   28      1511.42857 1431.42857  5.29%  94.0  469s
 40592   334 1461.42857   30   49 1511.42857 1431.42857  5.29%  94.1  481s
 42489    79 infeasible   36      1511.42857 1431.42857  5.29%  93.2  490s

Cutting planes:
  Gomory: 3
  Cover: 10
  Implied bound: 19
  Clique: 2
  MIR: 6
  StrongCG: 1
  GUB cover: 14
  Zero half: 2
  RLT: 11

Explored 44060 nodes (4075115 simplex iterations) in 492.34 seconds (305.42 work units)
Thread count was 24 (of 48 available processors)

Solution count 2: 1511.43 2523.01 

Optimal solution found (tolerance 1.00e-04)
Best objective 1.511428571429e+03, best bound 1.511428571429e+03, gap 0.0000%
Gurobi status: 2
------------------------------
1:
	'id': 139800903969760, 'type':idle, 'x': 1, 'y': 1, 'd': None, 'p': None, 'tau': 0.0, 'pred': None, 'succ':None
	'id': 139800903969712, 'type':idle, 'x': 1, 'y': 1, 'd': None, 'p': None, 'tau': 0.0, 'pred': None, 'succ':None
	'id': 139800903969664, 'type':idle, 'x': 1, 'y': 1, 'd': None, 'p': None, 'tau': 0.0, 'pred': None, 'succ':None
	'id': 139800903969616, 'type':load, 'x': 1, 'y': 1, 'd': 1, 'p': 0, 'tau': 20.0, 'pred': None, 'succ':139800903969568
	'id': 139800903969568, 'type':move, 'x': 1, 'y': 5, 'd': 1, 'p': 1, 'tau': 735.714285714319, 'pred': 139800903969616, 'succ':139800903970096
	'id': 139800903970096, 'type':unload, 'x': 5, 'y': 5, 'd': 1, 'p': 2, 'tau': 755.714285714319, 'pred': 139800903969568, 'succ':139800897965168

2:
	'id': 139800903969808, 'type':idle, 'x': 2, 'y': 2, 'd': None, 'p': None, 'tau': 0.0, 'pred': None, 'succ':None
	'id': 139800903969328, 'type':idle, 'x': 2, 'y': 2, 'd': None, 'p': None, 'tau': 0.0, 'pred': None, 'succ':None
	'id': 139800895003952, 'type':load, 'x': 2, 'y': 2, 'd': 2, 'p': 0, 'tau': 20.0, 'pred': None, 'succ':139800897964928
	'id': 139800897964928, 'type':move, 'x': 2, 'y': 4, 'd': 2, 'p': 1, 'tau': 1450.0, 'pred': 139800895003952, 'succ':139800897964976
	'id': 139800897964976, 'type':unload, 'x': 4, 'y': 4, 'd': 2, 'p': 2, 'tau': 1470.0, 'pred': 139800897964928, 'succ':None
	'id': 139800897965024, 'type':idle, 'x': 4, 'y': 4, 'd': None, 'p': None, 'tau': 1470.0, 'pred': None, 'succ':None

3:
	'id': 139800903970048, 'type':move, 'x': 3, 'y': 5, 'd': None, 'p': None, 'tau': 715.714285714319, 'pred': None, 'succ':None
	'id': 139800897965120, 'type':idle, 'x': 5, 'y': 5, 'd': None, 'p': None, 'tau': 715.714285714319, 'pred': None, 'succ':None
	'id': 139800897965168, 'type':load, 'x': 5, 'y': 5, 'd': 1, 'p': 3, 'tau': 775.714285714319, 'pred': 139800903970096, 'succ':139800897965216
	'id': 139800897965216, 'type':move, 'x': 5, 'y': 3, 'd': 1, 'p': 4, 'tau': 1491.428571428638, 'pred': 139800897965168, 'succ':139800897965264
	'id': 139800897965264, 'type':unload, 'x': 3, 'y': 3, 'd': 1, 'p': 5, 'tau': 1511.428571428638, 'pred': 139800897965216, 'succ':None
	'id': 139800897965312, 'type':idle, 'x': 3, 'y': 3, 'd': None, 'p': None, 'tau': 1511.428571428638, 'pred': None, 'succ':None
------------------------------

	Saving solution in ./out/Small/S5D2U3/10/MILP-primal/schedule.json
saving schedule
saving metrics
